NAME = SAfile180,
TOURSIZE = 180,
LENGTH = 1960,
107,149,150,132,6,22,175,173,174,63,11,1,91,98,142,57,113,32,4,50,38,3,39,75,167,90,136,18,2,156,97,10,34,28,54,164,170,96,103,176,180,58,125,33,73,146,143,100,65,112,81,48,94,26,101,126,127,17,68,20,122,134,13,80,121,179,166,106,19,135,158,116,172,45,12,16,29,152,139,43,52,155,128,77,70,23,37,36,66,64,171,83,41,79,162,61,15,147,40,46,138,42,21,8,93,178,7,120,115,165,160,92,95,109,30,51,47,163,74,78,159,153,123,124,55,169,177,104,145,130,84,119,71,140,5,9,148,59,161,151,117,49,99,133,25,88,102,129,154,87,86,56,157,108,144,14,168,89,118,44,24,137,62,72,82,85,60,69,67,131,76,53,31,141,27,114,111,110,105,35